NAME: Random_45_3
ELLAPSED_TIME_(ms): 1
TOUR_SIZE: 1040.9368
TOUR_SECTION
0
6
30
31
24
5
26
19
16
42
1
36
18
43
12
20
41
25
3
34
13
11
23
17
33
28
38
39
40
9
21
29
8
2
10
15
14
7
27
37
22
35
44
32
4
0
EOF
